55
1 0 42
2 0 42
2 1 7
3 0 73
3 1 24
3 2 27
4 0 52
4 1 55
4 2 27
4 3 66
5 0 66
5 1 46
5 2 52
5 3 19
5 4 52
6 0 6
6 1 37
6 2 28
6 3 55
6 4 60
6 5 58
7 0 22
7 1 18
7 2 67
7 3 2
7 4 61
7 5 7
7 6 68
8 0 62
8 1 61
8 2 74
8 3 16
8 4 69
8 5 21
8 6 38
8 7 10
9 0 23
9 1 40
9 2 35
9 3 75
9 4 51
9 5 65
9 6 25
9 7 68
9 8 65
10 0 44
10 1 16
10 2 72
10 3 14
10 4 17
10 5 48
10 6 13
10 7 5
10 8 40
10 9 44
11 0 30
11 1 12
11 2 20
11 3 70
11 4 70
11 5 61
11 6 72
11 7 44
11 8 48
11 9 57
11 10 40
12 0 7
12 1 55
12 2 18
12 3 65
12 4 7
12 5 46
12 6 70
12 7 74
12 8 18
12 9 31
12 10 40
12 11 49
13 0 25
13 1 75
13 2 58
13 3 17
13 4 58
13 5 59
13 6 10
13 7 7
13 8 51
13 9 35
13 10 54
13 11 19
13 12 13
14 0 44
14 1 67
14 2 51
14 3 50
14 4 41
14 5 58
14 6 47
14 7 17
14 8 27
14 9 44
14 10 74
14 11 29
14 12 40
14 13 36
15 0 14
15 1 65
15 2 42
15 3 28
15 4 45
15 5 5
15 6 5
15 7 69
15 8 13
15 9 33
15 10 49
15 11 46
15 12 62
15 13 2
15 14 58
16 0 42
16 1 61
16 2 50
16 3 34
16 4 52
16 5 7
16 6 62
16 7 36
16 8 11
16 9 38
16 10 71
16 11 29
16 12 15
16 13 9
16 14 61
16 15 41
17 0 15
17 1 17
17 2 28
17 3 74
17 4 71
17 5 53
17 6 62
17 7 62
17 8 62
17 9 58
17 10 11
17 11 31
17 12 40
17 13 32
17 14 23
17 15 50
17 16 8
18 0 4
18 1 50
18 2 9
18 3 56
18 4 63
18 5 43
18 6 43
18 7 43
18 8 19
18 9 72
18 10 43
18 11 24
18 12 43
18 13 40
18 14 69
18 15 38
18 16 11
18 17 65
19 0 7
19 1 57
19 2 3
19 3 35
19 4 17
19 5 19
19 6 12
19 7 45
19 8 60
19 9 30
19 10 74
19 11 31
19 12 50
19 13 21
19 14 44
19 15 67
19 16 50
19 17 37
19 18 40
20 0 29
20 1 2
20 2 26
20 3 52
20 4 53
20 5 40
20 6 49
20 7 24
20 8 31
20 9 62
20 10 30
20 11 62
20 12 35
20 13 41
20 14 17
20 15 71
20 16 28
20 17 6
20 18 38
20 19 32
21 0 54
21 1 18
21 2 8
21 3 34
21 4 35
21 5 2
21 6 47
21 7 13
21 8 44
21 9 14
21 10 27
21 11 26
21 12 57
21 13 46
21 14 26
21 15 64
21 16 30
21 17 26
21 18 26
21 19 37
21 20 9
22 0 73
22 1 34
22 2 37
22 3 19
22 4 58
22 5 59
22 6 40
22 7 29
22 8 40
22 9 39
22 10 15
22 11 55
22 12 22
22 13 7
22 14 20
22 15 68
22 16 17
22 17 22
22 18 13
22 19 36
22 20 30
22 21 58
23 0 38
23 1 15
23 2 19
23 3 5
23 4 39
23 5 1
23 6 74
23 7 8
23 8 68
23 9 6
23 10 3
23 11 67
23 12 21
23 13 30
23 14 44
23 15 64
23 16 20
23 17 71
23 18 51
23 19 66
23 20 5
23 21 12
23 22 21
24 0 22
24 1 60
24 2 33
24 3 42
24 4 6
24 5 7
24 6 66
24 7 4
24 8 13
24 9 63
24 10 21
24 11 42
24 12 49
24 13 60
24 14 25
24 15 71
24 16 9
24 17 48
24 18 41
24 19 20
24 20 48
24 21 56
24 22 10
24 23 48
25 0 69
25 1 37
25 2 2
25 3 75
25 4 63
25 5 18
25 6 61
25 7 55
25 8 15
25 9 70
25 10 7
25 11 47
25 12 37
25 13 13
25 14 53
25 15 43
25 16 7
25 17 24
25 18 51
25 19 21
25 20 74
25 21 43
25 22 2
25 23 55
25 24 14
26 0 39
26 1 46
26 2 75
26 3 18
26 4 29
26 5 57
26 6 73
26 7 39
26 8 70
26 9 17
26 10 70
26 11 25
26 12 73
26 13 69
26 14 74
26 15 67
26 16 43
26 17 24
26 18 63
26 19 54
26 20 63
26 21 35
26 22 40
26 23 9
26 24 42
26 25 14
27 0 72
27 1 46
27 2 9
27 3 44
27 4 28
27 5 51
27 6 50
27 7 21
27 8 10
27 9 3
27 10 15
27 11 57
27 12 43
27 13 25
27 14 19
27 15 61
27 16 34
27 17 5
27 18 11
27 19 5
27 20 50
27 21 4
27 22 16
27 23 67
27 24 2
27 25 53
27 26 21
28 0 24
28 1 15
28 2 73
28 3 30
28 4 56
28 5 27
28 6 64
28 7 44
28 8 35
28 9 73
28 10 45
28 11 3
28 12 34
28 13 58
28 14 7
28 15 17
28 16 58
28 17 64
28 18 10
28 19 41
28 20 52
28 21 40
28 22 38
28 23 61
28 24 22
28 25 19
28 26 2
28 27 29
29 0 6
29 1 68
29 2 11
29 3 73
29 4 11
29 5 3
29 6 40
29 7 28
29 8 38
29 9 2
29 10 61
29 11 40
29 12 3
29 13 20
29 14 47
29 15 71
29 16 71
29 17 50
29 18 21
29 19 74
29 20 46
29 21 20
29 22 68
29 23 71
29 24 35
29 25 51
29 26 66
29 27 51
29 28 4
30 0 45
30 1 62
30 2 23
30 3 44
30 4 48
30 5 44
30 6 15
30 7 36
30 8 23
30 9 65
30 10 21
30 11 61
30 12 64
30 13 31
30 14 35
30 15 48
30 16 7
30 17 9
30 18 44
30 19 46
30 20 55
30 21 22
30 22 12
30 23 27
30 24 55
30 25 61
30 26 5
30 27 38
30 28 40
30 29 22
31 0 53
31 1 26
31 2 33
31 3 13
31 4 23
31 5 45
31 6 25
31 7 29
31 8 44
31 9 50
31 10 40
31 11 19
31 12 53
31 13 21
31 14 43
31 15 30
31 16 29
31 17 47
31 18 74
31 19 13
31 20 43
31 21 20
31 22 51
31 23 49
31 24 74
31 25 25
31 26 18
31 27 19
31 28 44
31 29 68
31 30 23
32 0 52
32 1 41
32 2 48
32 3 72
32 4 39
32 5 31
32 6 63
32 7 47
32 8 58
32 9 50
32 10 59
32 11 5
32 12 16
32 13 43
32 14 58
32 15 22
32 16 33
32 17 22
32 18 28
32 19 51
32 20 47
32 21 36
32 22 58
32 23 35
32 24 60
32 25 66
32 26 11
32 27 29
32 28 66
32 29 59
32 30 45
32 31 29
33 0 68
33 1 13
33 2 73
33 3 23
33 4 9
33 5 66
33 6 44
33 7 13
33 8 64
33 9 25
33 10 55
33 11 43
33 12 43
33 13 47
33 14 39
33 15 4
33 16 4
33 17 55
33 18 26
33 19 47
33 20 9
33 21 27
33 22 6
33 23 61
33 24 5
33 25 67
33 26 55
33 27 64
33 28 50
33 29 3
33 30 24
33 31 64
33 32 52
34 0 25
34 1 73
34 2 11
34 3 74
34 4 51
34 5 52
34 6 15
34 7 54
34 8 36
34 9 18
34 10 48
34 11 32
34 12 2
34 13 3
34 14 24
34 15 56
34 16 23
34 17 5
34 18 39
34 19 7
34 20 21
34 21 16
34 22 62
34 23 56
34 24 24
34 25 30
34 26 73
34 27 67
34 28 29
34 29 50
34 30 71
34 31 59
34 32 11
34 33 65
35 0 9
35 1 75
35 2 9
35 3 47
35 4 2
35 5 28
35 6 30
35 7 70
35 8 19
35 9 18
35 10 60
35 11 19
35 12 41
35 13 71
35 14 18
35 15 18
35 16 68
35 17 63
35 18 65
35 19 26
35 20 31
35 21 8
35 22 12
35 23 62
35 24 19
35 25 15
35 26 1
35 27 10
35 28 54
35 29 67
35 30 43
35 31 40
35 32 37
35 33 68
35 34 20
36 0 40
36 1 43
36 2 63
36 3 34
36 4 24
36 5 25
36 6 63
36 7 34
36 8 36
36 9 53
36 10 11
36 11 67
36 12 51
36 13 44
36 14 42
36 15 60
36 16 61
36 17 70
36 18 31
36 19 54
36 20 8
36 21 69
36 22 45
36 23 65
36 24 9
36 25 32
36 26 53
36 27 74
36 28 40
36 29 42
36 30 24
36 31 41
36 32 14
36 33 72
36 34 12
36 35 38
37 0 62
37 1 21
37 2 35
37 3 34
37 4 36
37 5 59
37 6 60
37 7 21
37 8 32
37 9 21
37 10 23
37 11 28
37 12 11
37 13 46
37 14 74
37 15 6
37 16 59
37 17 33
37 18 42
37 19 6
37 20 74
37 21 14
37 22 1
37 23 51
37 24 8
37 25 21
37 26 60
37 27 20
37 28 9
37 29 73
37 30 32
37 31 35
37 32 66
37 33 36
37 34 60
37 35 60
37 36 37
38 0 28
38 1 37
38 2 47
38 3 54
38 4 5
38 5 11
38 6 2
38 7 7
38 8 13
38 9 16
38 10 48
38 11 67
38 12 1
38 13 72
38 14 45
38 15 7
38 16 32
38 17 49
38 18 33
38 19 19
38 20 56
38 21 65
38 22 10
38 23 43
38 24 45
38 25 63
38 26 67
38 27 67
38 28 67
38 29 71
38 30 36
38 31 16
38 32 10
38 33 64
38 34 66
38 35 5
38 36 69
38 37 5
39 0 66
39 1 51
39 2 21
39 3 44
39 4 51
39 5 73
39 6 15
39 7 15
39 8 49
39 9 61
39 10 33
39 11 44
39 12 1
39 13 56
39 14 56
39 15 2
39 16 59
39 17 44
39 18 45
39 19 51
39 20 33
39 21 20
39 22 38
39 23 42
39 24 7
39 25 70
39 26 28
39 27 50
39 28 19
39 29 18
39 30 24
39 31 7
39 32 17
39 33 14
39 34 12
39 35 54
39 36 65
39 37 8
39 38 25
40 0 13
40 1 23
40 2 40
40 3 71
40 4 68
40 5 53
40 6 12
40 7 20
40 8 61
40 9 26
40 10 74
40 11 2
40 12 31
40 13 30
40 14 39
40 15 69
40 16 60
40 17 24
40 18 34
40 19 42
40 20 65
40 21 56
40 22 27
40 23 50
40 24 20
40 25 10
40 26 19
40 27 5
40 28 32
40 29 61
40 30 71
40 31 12
40 32 22
40 33 75
40 34 56
40 35 41
40 36 68
40 37 63
40 38 65
40 39 4
41 0 59
41 1 68
41 2 34
41 3 54
41 4 50
41 5 22
41 6 16
41 7 66
41 8 28
41 9 36
41 10 14
41 11 66
41 12 43
41 13 50
41 14 65
41 15 68
41 16 54
41 17 66
41 18 64
41 19 62
41 20 51
41 21 41
41 22 56
41 23 23
41 24 45
41 25 4
41 26 4
41 27 25
41 28 5
41 29 28
41 30 11
41 31 11
41 32 47
41 33 8
41 34 37
41 35 65
41 36 23
41 37 25
41 38 3
41 39 58
41 40 47
42 0 4
42 1 13
42 2 54
42 3 9
42 4 15
42 5 45
42 6 3
42 7 48
42 8 44
42 9 24
42 10 27
42 11 51
42 12 9
42 13 31
42 14 59
42 15 53
42 16 18
42 17 15
42 18 31
42 19 6
42 20 25
42 21 11
42 22 26
42 23 7
42 24 49
42 25 42
42 26 41
42 27 30
42 28 2
42 29 66
42 30 14
42 31 35
42 32 16
42 33 9
42 34 16
42 35 9
42 36 69
42 37 59
42 38 46
42 39 29
42 40 50
42 41 33
43 0 22
43 1 70
43 2 6
43 3 38
43 4 48
43 5 65
43 6 20
43 7 5
43 8 28
43 9 70
43 10 33
43 11 71
43 12 63
43 13 10
43 14 63
43 15 2
43 16 19
43 17 25
43 18 46
43 19 56
43 20 31
43 21 37
43 22 26
43 23 28
43 24 63
43 25 33
43 26 22
43 27 7
43 28 22
43 29 36
43 30 32
43 31 31
43 32 25
43 33 14
43 34 1
43 35 21
43 36 26
43 37 1
43 38 26
43 39 59
43 40 66
43 41 68
43 42 44
44 0 44
44 1 49
44 2 62
44 3 6
44 4 14
44 5 28
44 6 58
44 7 50
44 8 67
44 9 3
44 10 73
44 11 47
44 12 5
44 13 63
44 14 20
44 15 18
44 16 53
44 17 29
44 18 46
44 19 39
44 20 71
44 21 73
44 22 39
44 23 10
44 24 56
44 25 31
44 26 58
44 27 54
44 28 53
44 29 14
44 30 47
44 31 26
44 32 6
44 33 20
44 34 38
44 35 33
44 36 27
44 37 60
44 38 54
44 39 47
44 40 62
44 41 29
44 42 69
44 43 35
45 0 2
45 1 62
45 2 11
45 3 52
45 4 19
45 5 26
45 6 54
45 7 43
45 8 17
45 9 67
45 10 29
45 11 54
45 12 49
45 13 69
45 14 39
45 15 13
45 16 31
45 17 49
45 18 4
45 19 45
45 20 36
45 21 2
45 22 52
45 23 13
45 24 67
45 25 32
45 26 41
45 27 22
45 28 22
45 29 11
45 30 4
45 31 12
45 32 66
45 33 24
45 34 74
45 35 3
45 36 69
45 37 28
45 38 72
45 39 45
45 40 73
45 41 42
45 42 46
45 43 54
45 44 40
46 0 75
46 1 27
46 2 42
46 3 62
46 4 23
46 5 41
46 6 71
46 7 66
46 8 60
46 9 17
46 10 19
46 11 14
46 12 50
46 13 5
46 14 27
46 15 29
46 16 61
46 17 67
46 18 22
46 19 6
46 20 16
46 21 8
46 22 57
46 23 36
46 24 64
46 25 61
46 26 50
46 27 39
46 28 54
46 29 32
46 30 18
46 31 58
46 32 31
46 33 17
46 34 28
46 35 14
46 36 25
46 37 67
46 38 23
46 39 35
46 40 31
46 41 17
46 42 69
46 43 52
46 44 74
46 45 34
47 0 75
47 1 40
47 2 21
47 3 58
47 4 28
47 5 68
47 6 29
47 7 20
47 8 65
47 9 21
47 10 71
47 11 5
47 12 22
47 13 57
47 14 72
47 15 39
47 16 8
47 17 45
47 18 6
47 19 64
47 20 18
47 21 5
47 22 47
47 23 25
47 24 35
47 25 37
47 26 18
47 27 11
47 28 12
47 29 1
47 30 37
47 31 29
47 32 24
47 33 38
47 34 27
47 35 65
47 36 22
47 37 39
47 38 11
47 39 53
47 40 37
47 41 23
47 42 9
47 43 64
47 44 7
47 45 16
47 46 18
48 0 5
48 1 27
48 2 8
48 3 43
48 4 64
48 5 37
48 6 35
48 7 28
48 8 45
48 9 41
48 10 32
48 11 53
48 12 61
48 13 21
48 14 68
48 15 26
48 16 3
48 17 70
48 18 39
48 19 22
48 20 15
48 21 69
48 22 74
48 23 66
48 24 10
48 25 33
48 26 14
48 27 49
48 28 52
48 29 16
48 30 9
48 31 28
48 32 54
48 33 64
48 34 26
48 35 52
48 36 53
48 37 46
48 38 59
48 39 35
48 40 70
48 41 44
48 42 64
48 43 63
48 44 32
48 45 34
48 46 20
48 47 33
49 0 8
49 1 39
49 2 13
49 3 22
49 4 56
49 5 42
49 6 22
49 7 33
49 8 63
49 9 45
49 10 19
49 11 14
49 12 38
49 13 70
49 14 26
49 15 48
49 16 54
49 17 51
49 18 21
49 19 72
49 20 62
49 21 68
49 22 66
49 23 11
49 24 9
49 25 5
49 26 45
49 27 58
49 28 49
49 29 15
49 30 19
49 31 59
49 32 62
49 33 22
49 34 43
49 35 7
49 36 27
49 37 41
49 38 32
49 39 59
49 40 49
49 41 48
49 42 44
49 43 17
49 44 50
49 45 13
49 46 39
49 47 19
49 48 63
50 0 61
50 1 65
50 2 13
50 3 43
50 4 65
50 5 7
50 6 35
50 7 41
50 8 30
50 9 54
50 10 23
50 11 44
50 12 72
50 13 16
50 14 13
50 15 2
50 16 43
50 17 23
50 18 33
50 19 67
50 20 57
50 21 27
50 22 37
50 23 73
50 24 31
50 25 72
50 26 56
50 27 1
50 28 2
50 29 3
50 30 67
50 31 35
50 32 42
50 33 7
50 34 70
50 35 23
50 36 65
50 37 21
50 38 66
50 39 14
50 40 40
50 41 39
50 42 31
50 43 61
50 44 44
50 45 60
50 46 46
50 47 13
50 48 23
50 49 35
51 0 50
51 1 15
51 2 9
51 3 6
51 4 18
51 5 64
51 6 41
51 7 73
51 8 46
51 9 68
51 10 20
51 11 4
51 12 22
51 13 47
51 14 10
51 15 71
51 16 13
51 17 26
51 18 41
51 19 63
51 20 53
51 21 49
51 22 31
51 23 47
51 24 59
51 25 34
51 26 70
51 27 73
51 28 66
51 29 28
51 30 44
51 31 56
51 32 15
51 33 11
51 34 14
51 35 48
51 36 28
51 37 2
51 38 71
51 39 4
51 40 17
51 41 17
51 42 69
51 43 42
51 44 53
51 45 1
51 46 13
51 47 40
51 48 53
51 49 9
51 50 34
52 0 57
52 1 54
52 2 21
52 3 41
52 4 75
52 5 27
52 6 14
52 7 25
52 8 1
52 9 9
52 10 30
52 11 17
52 12 29
52 13 6
52 14 51
52 15 45
52 16 16
52 17 35
52 18 65
52 19 26
52 20 33
52 21 72
52 22 31
52 23 58
52 24 30
52 25 35
52 26 1
52 27 19
52 28 3
52 29 52
52 30 8
52 31 39
52 32 46
52 33 47
52 34 2
52 35 40
52 36 71
52 37 65
52 38 18
52 39 12
52 40 42
52 41 19
52 42 56
52 43 18
52 44 21
52 45 40
52 46 61
52 47 53
52 48 7
52 49 59
52 50 38
52 51 65
53 0 20
53 1 56
53 2 41
53 3 68
53 4 22
53 5 40
53 6 56
53 7 34
53 8 59
53 9 21
53 10 65
53 11 46
53 12 48
53 13 50
53 14 50
53 15 44
53 16 14
53 17 24
53 18 36
53 19 24
53 20 51
53 21 46
53 22 50
53 23 29
53 24 72
53 25 35
53 26 53
53 27 3
53 28 51
53 29 66
53 30 60
53 31 34
53 32 44
53 33 45
53 34 21
53 35 16
53 36 65
53 37 74
53 38 5
53 39 66
53 40 20
53 41 2
53 42 10
53 43 3
53 44 56
53 45 4
53 46 52
53 47 6
53 48 63
53 49 44
53 50 32
53 51 63
53 52 64
54 0 34
54 1 12
54 2 54
54 3 47
54 4 75
54 5 48
54 6 63
54 7 46
54 8 5
54 9 31
54 10 39
54 11 29
54 12 8
54 13 74
54 14 74
54 15 54
54 16 45
54 17 50
54 18 13
54 19 14
54 20 38
54 21 60
54 22 10
54 23 40
54 24 45
54 25 31
54 26 5
54 27 39
54 28 69
54 29 20
54 30 28
54 31 1
54 32 33
54 33 5
54 34 8
54 35 17
54 36 1
54 37 9
54 38 46
54 39 56
54 40 74
54 41 60
54 42 29
54 43 45
54 44 3
54 45 52
54 46 26
54 47 31
54 48 26
54 49 1
54 50 4
54 51 34
54 52 60
54 53 72
